1 51 2
-63 -914 -603 -898 -84 -701 -246 -147 -76 -509 -815 -528 -650 -4 -2 -742 -223 -801 -60 -636 -384 -829 -693 -381 -834 -978 -425 -793 -884 -194 -319 -583 -201 -494 -812 -928 -464 -287 -571 -403 -693 -454 -737 -289 -233 -118 -744 -619 -575 -426 0 
-573 -14 -393 -355 -685 -900 -241 -534 -91 -938 -47 -50 -528 -824 -333 -240 -753 -776 -960 -521 -390 -829 -27 -969 -139 -143 -742 -552 -414 -289 -433 -883 -194 -233 -562 -397 -128 -477 -7 -773 -370 -23 -457 -930 -547 -301 -390 -56 -573 -982 0 
302 88 161 186 459 537 786 608 695 575 670 32 59 18 835 53 826 855 285 453 211 489 933 572 4 503 185 237 396 7 286 776 598 681 897 195 762 808 439 760 190 749 761 450 728 319 581 153 199 26 1 
11189 
